sat
(:max-memory         18.52
 :memory             18.42
 :nlsat-arith-var    3
 :nlsat-atoms        13
 :nlsat-bool-var     2
 :nlsat-clauses      9
 :nlsat-conflicts    1
 :nlsat-decisions    1
 :nlsat-propagations 11
 :nlsat-stages       4
 :num-allocs         59948
 :rlimit-count       7364
 :time               0.01
 :total-time         0.02)
